TCS_Benchmarks/redos_fix/snort1_output_distinct_2385_2384_49_0.txt
([^\n\r]*)(\s+)
([^\n\r]*)(\-\d+_\d+_\d+\-\d+_\d+_\d+)(\s+)